p edge 320 2240
e 1 27
e 1 41
e 1 131
e 1 131
e 1 150
e 1 221
e 1 317
e 2 78
e 2 114
e 2 135
e 2 151
e 2 210
e 2 216
e 2 293
e 3 69
e 3 71
e 3 154
e 3 168
e 3 200
e 3 204
e 3 208
e 4 79
e 4 104
e 4 116
e 4 143
e 4 156
e 4 166
e 4 174
e 5 30
e 5 52
e 5 86
e 5 124
e 5 181
e 5 289
e 5 319
e 6 30
e 6 69
e 6 212
e 6 215
e 6 270
e 6 272
e 6 310
e 7 33
e 7 72
e 7 85
e 7 184
e 7 284
e 7 299
e 7 304
e 8 46
e 8 78
e 8 107
e 8 167
e 8 209
e 8 279
e 8 285
e 9 37
e 9 53
e 9 64
e 9 83
e 9 151
e 9 164
e 9 256
e 10 21
e 10 100
e 10 210
e 10 309
e 10 309
e 10 312
e 10 317
e 11 57
e 11 105
e 11 126
e 11 188
e 11 199
e 11 235
e 11 298
e 12 8
e 12 13
e 12 43
e 12 49
e 12 88
e 12 114
e 12 233
e 13 27
e 13 43
e 13 51
e 13 96
e 13 158
e 13 176
e 13 191
e 14 43
e 14 112
e 14 134
e 14 148
e 14 190
e 14 213
e 14 239
e 15 10
e 15 72
e 15 117
e 15 209
e 15 227
e 15 298
e 15 319
e 16 93
e 16 157
e 16 159
e 16 178
e 16 234
e 16 280
e 16 307
e 17 1
e 17 2
e 17 26
e 17 114
e 17 227
e 17 276
e 17 308
e 18 50
e 18 77
e 18 82
e 18 129
e 18 160
e 18 168
e 18 313
e 19 30
e 19 138
e 19 215
e 19 222
e 19 239
e 19 300
e 19 301
e 20 47
e 20 53
e 20 63
e 20 193
e 20 269
e 20 302
e 20 316
e 21 16
e 21 35
e 21 77
e 21 127
e 21 208
e 21 231
e 21 241
e 22 3
e 22 129
e 22 152
e 22 154
e 22 155
e 22 176
e 22 278
e 23 18
e 23 60
e 23 134
e 23 139
e 23 162
e 23 185
e 23 243
e 24 8
e 24 18
e 24 34
e 24 38
e 24 73
e 24 252
e 24 255
e 25 58
e 25 75
e 25 193
e 25 221
e 25 239
e 25 314
e 25 316
e 26 27
e 26 28
e 26 41
e 26 55
e 26 145
e 26 171
e 26 247
e 27 7
e 27 71
e 27 176
e 27 263
e 27 294
e 27 294
e 27 296
e 28 9
e 28 17
e 28 77
e 28 97
e 28 114
e 28 124
e 28 153
e 29 11
e 29 155
e 29 163
e 29 208
e 29 276
e 29 293
e 29 299
e 30 7
e 30 74
e 30 95
e 30 102
e 30 212
e 30 256
e 30 304
e 31 55
e 31 106
e 31 128
e 31 137
e 31 212
e 31 225
e 31 314
e 32 68
e 32 70
e 32 74
e 32 238
e 32 259
e 32 288
e 32 317
e 33 21
e 33 35
e 33 39
e 33 113
e 33 118
e 33 144
e 33 283
e 34 90
e 34 141
e 34 159
e 34 168
e 34 186
e 34 206
e 34 319
e 35 88
e 35 225
e 35 235
e 35 242
e 35 264
e 35 269
e 35 286
e 36 100
e 36 178
e 36 199
e 36 222
e 36 224
e 36 278
e 36 312
e 37 60
e 37 85
e 37 146
e 37 196
e 37 237
e 37 251
e 37 295
e 38 68
e 38 119
e 38 139
e 38 154
e 38 158
e 38 265
e 38 271
e 39 9
e 39 64
e 39 76
e 39 86
e 39 92
e 39 202
e 39 254
e 40 63
e 40 139
e 40 174
e 40 205
e 40 243
e 40 289
e 40 301
e 41 34
e 41 77
e 41 204
e 41 217
e 41 232
e 41 297
e 41 303
e 42 65
e 42 149
e 42 179
e 42 190
e 42 260
e 42 263
e 42 292
e 43 41
e 43 62
e 43 65
e 43 72
e 43 95
e 43 152
e 43 218
e 44 38
e 44 51
e 44 95
e 44 157
e 44 162
e 44 273
e 44 296
e 45 58
e 45 83
e 45 94
e 45 100
e 45 133
e 45 134
e 45 166
e 46 5
e 46 25
e 46 77
e 46 114
e 46 121
e 46 179
e 46 318
e 47 8
e 47 31
e 47 72
e 47 146
e 47 156
e 47 209
e 47 217
e 48 24
e 48 153
e 48 162
e 48 196
e 48 202
e 48 247
e 48 277
e 49 28
e 49 34
e 49 55
e 49 89
e 49 99
e 49 177
e 49 300
e 50 18
e 50 113
e 50 136
e 50 164
e 50 210
e 50 236
e 50 246
e 51 80
e 51 101
e 51 134
e 51 184
e 51 232
e 51 241
e 51 257
e 52 3
e 52 131
e 52 211
e 52 230
e 52 235
e 52 312
e 52 319
e 53 71
e 53 82
e 53 155
e 53 166
e 53 190
e 53 232
e 53 234
e 54 33
e 54 42
e 54 90
e 54 96
e 54 246
e 54 261
e 54 305
e 55 22
e 55 80
e 55 119
e 55 131
e 55 139
e 55 186
e 55 198
e 56 54
e 56 81
e 56 109
e 56 122
e 56 205
e 56 255
e 56 301
e 57 117
e 57 162
e 57 188
e 57 211
e 57 247
e 57 293
e 57 294
e 58 79
e 58 130
e 58 140
e 58 187
e 58 252
e 58 290
e 58 296
e 59 19
e 59 42
e 59 83
e 59 101
e 59 124
e 59 274
e 59 306
e 60 43
e 60 63
e 60 92
e 60 127
e 60 248
e 60 260
e 60 309
e 61 48
e 61 52
e 61 92
e 61 112
e 61 132
e 61 160
e 61 242
e 62 27
e 62 44
e 62 126
e 62 166
e 62 211
e 62 283
e 62 320
e 63 21
e 63 49
e 63 99
e 63 247
e 63 295
e 63 296
e 63 311
e 64 54
e 64 59
e 64 122
e 64 136
e 64 161
e 64 186
e 64 188
e 65 17
e 65 108
e 65 136
e 65 202
e 65 213
e 65 252
e 65 302
e 66 159
e 66 177
e 66 190
e 66 199
e 66 235
e 66 256
e 66 267
e 67 48
e 67 88
e 67 96
e 67 242
e 67 261
e 67 262
e 67 279
e 68 18
e 68 66
e 68 100
e 68 125
e 68 206
e 68 224
e 68 244
e 69 30
e 69 106
e 69 125
e 69 176
e 69 242
e 69 276
e 69 285
e 70 33
e 70 95
e 70 164
e 70 166
e 70 174
e 70 216
e 70 235
e 71 10
e 71 80
e 71 109
e 71 110
e 71 157
e 71 195
e 71 225
e 72 1
e 72 48
e 72 94
e 72 181
e 72 193
e 72 234
e 72 252
e 73 2
e 73 65
e 73 84
e 73 139
e 73 263
e 73 288
e 73 313
e 74 91
e 74 127
e 74 189
e 74 234
e 74 264
e 74 287
e 74 302
e 75 91
e 75 129
e 75 174
e 75 216
e 75 254
e 75 268
e 75 303
e 76 29
e 76 81
e 76 118
e 76 177
e 76 230
e 76 278
e 76 282
e 77 46
e 77 98
e 77 177
e 77 181
e 77 241
e 77 306
e 77 309
e 78 36
e 78 50
e 78 165
e 78 219
e 78 229
e 78 236
e 78 273
e 79 15
e 79 97
e 79 99
e 79 156
e 79 165
e 79 167
e 79 270
e 80 20
e 80 38
e 80 61
e 80 127
e 80 127
e 80 298
e 80 314
e 81 21
e 81 22
e 81 69
e 81 123
e 81 133
e 81 210
e 81 300
e 82 3
e 82 43
e 82 67
e 82 164
e 82 164
e 82 250
e 82 303
e 83 28
e 83 108
e 83 193
e 83 264
e 83 272
e 83 300
e 83 301
e 84 28
e 84 146
e 84 173
e 84 176
e 84 208
e 84 310
e 84 318
e 85 58
e 85 115
e 85 125
e 85 162
e 85 244
e 85 283
e 85 309
e 86 54
e 86 95
e 86 116
e 86 122
e 86 227
e 86 260
e 86 265
e 87 29
e 87 71
e 87 80
e 87 85
e 87 142
e 87 209
e 87 242
e 88 8
e 88 28
e 88 116
e 88 254
e 88 259
e 88 269
e 88 290
e 89 3
e 89 15
e 89 28
e 89 31
e 89 75
e 89 153
e 89 303
e 90 3
e 90 150
e 90 200
e 90 220
e 90 226
e 90 233
e 90 309
e 91 72
e 91 73
e 91 83
e 91 182
e 91 209
e 91 279
e 91 286
e 92 20
e 92 24
e 92 52
e 92 54
e 92 82
e 92 262
e 92 293
e 93 39
e 93 113
e 93 118
e 93 133
e 93 218
e 93 297
e 93 313
e 94 6
e 94 125
e 94 149
e 94 161
e 94 202
e 94 235
e 94 300
e 95 37
e 95 86
e 95 122
e 95 163
e 95 219
e 95 293
e 95 306
e 96 15
e 96 26
e 96 56
e 96 66
e 96 147
e 96 235
e 96 300
e 97 33
e 97 114
e 97 166
e 97 230
e 97 255
e 97 299
e 97 307
e 98 129
e 98 137
e 98 197
e 98 232
e 98 245
e 98 269
e 98 314
e 99 24
e 99 96
e 99 134
e 99 138
e 99 166
e 99 297
e 99 310
e 100 62
e 100 173
e 100 209
e 100 258
e 100 263
e 100 270
e 100 272
e 101 8
e 101 27
e 101 28
e 101 106
e 101 201
e 101 275
e 101 278
e 102 43
e 102 64
e 102 104
e 102 147
e 102 161
e 102 272
e 102 310
e 103 51
e 103 69
e 103 111
e 103 112
e 103 113
e 103 249
e 103 296
e 104 91
e 104 102
e 104 136
e 104 185
e 104 246
e 104 281
e 104 285
e 105 42
e 105 78
e 105 129
e 105 146
e 105 161
e 105 171
e 105 227
e 106 12
e 106 25
e 106 70
e 106 93
e 106 109
e 106 161
e 106 213
e 107 54
e 107 126
e 107 151
e 107 185
e 107 204
e 107 307
e 107 311
e 108 29
e 108 78
e 108 123
e 108 132
e 108 200
e 108 237
e 108 288
e 109 14
e 109 17
e 109 53
e 109 64
e 109 146
e 109 216
e 109 236
e 110 8
e 110 25
e 110 76
e 110 150
e 110 294
e 110 311
e 110 320
e 111 70
e 111 118
e 111 138
e 111 186
e 111 234
e 111 278
e 111 286
e 112 2
e 112 33
e 112 65
e 112 108
e 112 150
e 112 268
e 112 278
e 113 22
e 113 36
e 113 59
e 113 105
e 113 235
e 113 239
e 113 289
e 114 68
e 114 140
e 114 171
e 114 180
e 114 242
e 114 258
e 114 291
e 115 42
e 115 49
e 115 94
e 115 175
e 115 196
e 115 256
e 115 282
e 116 121
e 116 137
e 116 141
e 116 155
e 116 196
e 116 271
e 116 272
e 117 81
e 117 91
e 117 101
e 117 102
e 117 123
e 117 218
e 117 273
e 118 28
e 118 42
e 118 78
e 118 156
e 118 185
e 118 191
e 118 252
e 119 20
e 119 171
e 119 204
e 119 255
e 119 259
e 119 298
e 119 320
e 120 165
e 120 181
e 120 217
e 120 239
e 120 277
e 120 296
e 120 305
e 121 38
e 121 46
e 121 68
e 121 194
e 121 243
e 121 248
e 121 256
e 122 31
e 122 78
e 122 222
e 122 229
e 122 246
e 122 294
e 122 308
e 123 40
e 123 111
e 123 163
e 123 186
e 123 188
e 123 198
e 123 249
e 124 59
e 124 88
e 124 189
e 124 204
e 124 226
e 124 245
e 124 253
e 125 73
e 125 156
e 125 174
e 125 183
e 125 190
e 125 214
e 125 226
e 126 149
e 126 153
e 126 200
e 126 228
e 126 266
e 126 278
e 126 280
e 127 48
e 127 74
e 127 110
e 127 125
e 127 188
e 127 218
e 127 265
e 128 18
e 128 36
e 128 114
e 128 204
e 128 228
e 128 276
e 128 276
e 129 32
e 129 77
e 129 109
e 129 136
e 129 197
e 129 225
e 129 311
e 130 32
e 130 169
e 130 196
e 130 204
e 130 241
e 130 265
e 130 276
e 131 94
e 131 129
e 131 146
e 131 170
e 131 268
e 131 279
e 131 293
e 132 35
e 132 73
e 132 86
e 132 109
e 132 146
e 132 188
e 132 219
e 133 41
e 133 77
e 133 126
e 133 131
e 133 143
e 133 244
e 133 279
e 134 45
e 134 172
e 134 219
e 134 224
e 134 226
e 134 310
e 134 320
e 135 71
e 135 102
e 135 168
e 135 192
e 135 214
e 135 247
e 135 270
e 136 40
e 136 47
e 136 81
e 136 130
e 136 149
e 136 202
e 136 285
e 137 8
e 137 82
e 137 93
e 137 238
e 137 239
e 137 269
e 137 285
e 138 34
e 138 133
e 138 147
e 138 199
e 138 218
e 138 241
e 138 266
e 139 60
e 139 61
e 139 143
e 139 231
e 139 238
e 139 244
e 139 284
e 140 116
e 140 155
e 140 158
e 140 195
e 140 202
e 140 221
e 140 306
e 141 12
e 141 18
e 141 57
e 141 113
e 141 186
e 141 193
e 141 265
e 142 95
e 142 167
e 142 175
e 142 259
e 142 263
e 142 274
e 142 296
e 143 6
e 143 49
e 143 180
e 143 201
e 143 266
e 143 290
e 143 320
e 144 6
e 144 30
e 144 100
e 144 115
e 144 130
e 144 162
e 144 168
e 145 62
e 145 117
e 145 128
e 145 202
e 145 231
e 145 316
e 145 318
e 146 36
e 146 110
e 146 131
e 146 188
e 146 199
e 146 216
e 146 303
e 147 62
e 147 67
e 147 92
e 147 94
e 147 128
e 147 193
e 147 245
e 148 39
e 148 82
e 148 94
e 148 126
e 148 241
e 148 267
e 148 284
e 149 3
e 149 38
e 149 77
e 149 122
e 149 221
e 149 236
e 149 310
e 150 6
e 150 13
e 150 78
e 150 102
e 150 119
e 150 235
e 150 265
e 151 15
e 151 74
e 151 101
e 151 204
e 151 214
e 151 233
e 151 292
e 152 97
e 152 191
e 152 196
e 152 196
e 152 225
e 152 229
e 152 282
e 153 97
e 153 100
e 153 163
e 153 203
e 153 210
e 153 254
e 153 289
e 154 11
e 154 89
e 154 100
e 154 184
e 154 208
e 154 284
e 154 292
e 155 42
e 155 79
e 155 100
e 155 156
e 155 158
e 155 231
e 155 313
e 156 2
e 156 53
e 156 56
e 156 97
e 156 115
e 156 298
e 156 311
e 157 24
e 157 25
e 157 58
e 157 192
e 157 249
e 157 253
e 157 311
e 158 27
e 158 31
e 158 94
e 158 125
e 158 217
e 158 221
e 158 298
e 159 97
e 159 104
e 159 141
e 159 191
e 159 192
e 159 270
e 159 280
e 160 38
e 160 77
e 160 105
e 160 181
e 160 189
e 160 223
e 160 230
e 161 30
e 161 54
e 161 151
e 161 157
e 161 298
e 161 309
e 161 319
e 162 2
e 162 47
e 162 120
e 162 122
e 162 171
e 162 221
e 162 246
e 163 35
e 163 50
e 163 91
e 163 136
e 163 188
e 163 210
e 163 270
e 164 142
e 164 174
e 164 175
e 164 200
e 164 225
e 164 250
e 164 293
e 165 44
e 165 74
e 165 105
e 165 150
e 165 203
e 165 206
e 165 226
e 166 129
e 166 151
e 166 154
e 166 175
e 166 204
e 166 284
e 166 295
e 167 2
e 167 9
e 167 134
e 167 202
e 167 233
e 167 244
e 167 315
e 168 60
e 168 76
e 168 94
e 168 216
e 168 251
e 168 263
e 168 300
e 169 14
e 169 43
e 169 121
e 169 127
e 169 134
e 169 189
e 169 318
e 170 20
e 170 22
e 170 53
e 170 64
e 170 74
e 170 290
e 170 299
e 171 3
e 171 25
e 171 29
e 171 77
e 171 194
e 171 312
e 171 312
e 172 39
e 172 158
e 172 179
e 172 182
e 172 185
e 172 245
e 172 315
e 173 23
e 173 69
e 173 117
e 173 127
e 173 214
e 173 283
e 173 288
e 174 143
e 174 176
e 174 188
e 174 275
e 174 280
e 174 286
e 174 307
e 175 75
e 175 88
e 175 90
e 175 107
e 175 153
e 175 264
e 175 316
e 176 121
e 176 173
e 176 178
e 176 189
e 176 216
e 176 218
e 176 314
e 177 34
e 177 56
e 177 168
e 177 169
e 177 220
e 177 286
e 177 302
e 178 13
e 178 84
e 178 120
e 178 123
e 178 210
e 178 274
e 178 284
e 179 46
e 179 48
e 179 61
e 179 83
e 179 151
e 179 297
e 179 319
e 180 27
e 180 78
e 180 119
e 180 135
e 180 160
e 180 178
e 180 311
e 181 5
e 181 25
e 181 57
e 181 73
e 181 162
e 181 202
e 181 229
e 182 51
e 182 55
e 182 75
e 182 217
e 182 221
e 182 257
e 182 276
e 183 78
e 183 81
e 183 174
e 183 187
e 183 231
e 183 242
e 183 313
e 184 15
e 184 57
e 184 154
e 184 200
e 184 225
e 184 295
e 184 311
e 185 16
e 185 58
e 185 63
e 185 140
e 185 201
e 185 301
e 185 301
e 186 46
e 186 56
e 186 103
e 186 112
e 186 114
e 186 165
e 186 214
e 187 61
e 187 115
e 187 115
e 187 183
e 187 218
e 187 288
e 187 306
e 188 26
e 188 40
e 188 86
e 188 210
e 188 251
e 188 290
e 188 302
e 189 3
e 189 28
e 189 86
e 189 200
e 189 224
e 189 269
e 189 272
e 190 27
e 190 46
e 190 66
e 190 123
e 190 163
e 190 229
e 190 309
e 191 2
e 191 10
e 191 109
e 191 166
e 191 202
e 191 275
e 191 277
e 192 48
e 192 120
e 192 199
e 192 213
e 192 227
e 192 279
e 192 308
e 193 24
e 193 74
e 193 98
e 193 124
e 193 209
e 193 222
e 193 291
e 194 32
e 194 104
e 194 180
e 194 218
e 194 239
e 194 246
e 194 275
e 195 26
e 195 40
e 195 145
e 195 149
e 195 175
e 195 188
e 195 297
e 196 79
e 196 94
e 196 99
e 196 130
e 196 142
e 196 152
e 196 213
e 197 44
e 197 85
e 197 132
e 197 142
e 197 250
e 197 258
e 197 273
e 198 26
e 198 52
e 198 138
e 198 180
e 198 273
e 198 279
e 198 309
e 199 10
e 199 33
e 199 66
e 199 105
e 199 156
e 199 168
e 199 250
e 200 36
e 200 171
e 200 181
e 200 183
e 200 195
e 200 208
e 200 256
e 201 75
e 201 92
e 201 141
e 201 213
e 201 217
e 201 248
e 201 297
e 202 44
e 202 57
e 202 169
e 202 175
e 202 213
e 202 240
e 202 298
e 203 31
e 203 50
e 203 183
e 203 201
e 203 221
e 203 226
e 203 320
e 204 40
e 204 102
e 204 146
e 204 155
e 204 195
e 204 217
e 204 218
e 205 17
e 205 39
e 205 96
e 205 178
e 205 259
e 205 261
e 205 303
e 206 66
e 206 74
e 206 86
e 206 170
e 206 187
e 206 193
e 206 315
e 207 1
e 207 26
e 207 126
e 207 160
e 207 176
e 207 177
e 207 277
e 208 18
e 208 90
e 208 120
e 208 175
e 208 195
e 208 207
e 208 273
e 209 103
e 209 159
e 209 191
e 209 225
e 209 249
e 209 284
e 209 310
e 210 16
e 210 66
e 210 106
e 210 147
e 210 165
e 210 198
e 210 293
e 211 2
e 211 80
e 211 142
e 211 142
e 211 153
e 211 227
e 211 281
e 212 107
e 212 228
e 212 256
e 212 275
e 212 281
e 212 302
e 212 308
e 213 40
e 213 84
e 213 86
e 213 99
e 213 165
e 213 246
e 213 317
e 214 21
e 214 44
e 214 117
e 214 128
e 214 204
e 214 206
e 214 221
e 215 14
e 215 269
e 215 286
e 215 302
e 215 305
e 215 314
e 215 318
e 216 132
e 216 169
e 216 251
e 216 273
e 216 294
e 216 300
e 216 319
e 217 19
e 217 51
e 217 104
e 217 150
e 217 186
e 217 278
e 217 300
e 218 40
e 218 58
e 218 267
e 218 274
e 218 282
e 218 296
e 218 304
e 219 76
e 219 96
e 219 111
e 219 111
e 219 158
e 219 160
e 219 245
e 220 80
e 220 93
e 220 93
e 220 106
e 220 227
e 220 285
e 220 300
e 221 101
e 221 112
e 221 142
e 221 233
e 221 250
e 221 272
e 221 288
e 222 31
e 222 78
e 222 89
e 222 121
e 222 162
e 222 184
e 222 217
e 223 31
e 223 32
e 223 164
e 223 235
e 223 263
e 223 286
e 223 297
e 224 19
e 224 88
e 224 94
e 224 111
e 224 187
e 224 198
e 224 218
e 225 34
e 225 61
e 225 70
e 225 154
e 225 164
e 225 260
e 225 296
e 226 1
e 226 62
e 226 64
e 226 131
e 226 162
e 226 274
e 226 304
e 227 17
e 227 95
e 227 179
e 227 193
e 227 200
e 227 215
e 227 281
e 228 67
e 228 68
e 228 79
e 228 165
e 228 194
e 228 230
e 228 231
e 229 38
e 229 107
e 229 121
e 229 202
e 229 214
e 229 249
e 229 260
e 230 58
e 230 157
e 230 214
e 230 226
e 230 275
e 230 275
e 230 300
e 231 3
e 231 114
e 231 131
e 231 147
e 231 256
e 231 302
e 231 309
e 232 3
e 232 30
e 232 53
e 232 117
e 232 205
e 232 207
e 232 306
e 233 74
e 233 92
e 233 143
e 233 153
e 233 176
e 233 190
e 233 244
e 234 44
e 234 130
e 234 182
e 234 232
e 234 255
e 234 292
e 234 293
e 235 38
e 235 225
e 235 255
e 235 260
e 235 271
e 235 276
e 235 317
e 236 43
e 236 108
e 236 137
e 236 168
e 236 171
e 236 180
e 236 310
e 237 17
e 237 28
e 237 30
e 237 49
e 237 253
e 237 265
e 237 317
e 238 48
e 238 85
e 238 99
e 238 125
e 238 151
e 238 267
e 238 296
e 239 20
e 239 106
e 239 121
e 239 123
e 239 190
e 239 238
e 239 277
e 240 62
e 240 71
e 240 99
e 240 190
e 240 227
e 240 235
e 240 295
e 241 100
e 241 103
e 241 139
e 241 181
e 241 215
e 241 284
e 241 316
e 242 16
e 242 110
e 242 146
e 242 208
e 242 275
e 242 282
e 242 288
e 243 12
e 243 85
e 243 96
e 243 150
e 243 170
e 243 214
e 243 235
e 244 20
e 244 39
e 244 64
e 244 108
e 244 184
e 244 217
e 244 317
e 245 32
e 245 163
e 245 228
e 245 230
e 245 231
e 245 254
e 245 292
e 246 35
e 246 63
e 246 69
e 246 262
e 246 272
e 246 287
e 246 318
e 247 2
e 247 19
e 247 86
e 247 132
e 247 210
e 247 239
e 247 291
e 248 51
e 248 56
e 248 84
e 248 128
e 248 132
e 248 221
e 248 301
e 249 21
e 249 69
e 249 176
e 249 254
e 249 258
e 249 262
e 249 319
e 250 11
e 250 40
e 250 49
e 250 50
e 250 85
e 250 117
e 250 248
e 251 12
e 251 61
e 251 109
e 251 149
e 251 169
e 251 211
e 251 295
e 252 67
e 252 119
e 252 143
e 252 161
e 252 192
e 252 245
e 252 305
e 253 8
e 253 117
e 253 161
e 253 200
e 253 228
e 253 244
e 253 289
e 254 38
e 254 47
e 254 114
e 254 142
e 254 150
e 254 213
e 254 283
e 255 84
e 255 92
e 255 131
e 255 163
e 255 170
e 255 289
e 255 310
e 256 13
e 256 53
e 256 221
e 256 232
e 256 232
e 256 266
e 256 315
e 257 111
e 257 162
e 257 184
e 257 228
e 257 229
e 257 246
e 257 278
e 258 16
e 258 29
e 258 118
e 258 200
e 258 212
e 258 234
e 258 236
e 259 27
e 259 37
e 259 41
e 259 172
e 259 266
e 259 270
e 259 320
e 260 34
e 260 64
e 260 82
e 260 91
e 260 94
e 260 203
e 260 300
e 261 13
e 261 43
e 261 106
e 261 159
e 261 161
e 261 167
e 261 263
e 262 52
e 262 63
e 262 99
e 262 144
e 262 174
e 262 192
e 262 291
e 263 47
e 263 160
e 263 182
e 263 212
e 263 238
e 263 249
e 263 254
e 264 70
e 264 82
e 264 83
e 264 115
e 264 151
e 264 166
e 264 178
e 265 45
e 265 138
e 265 148
e 265 223
e 265 294
e 265 305
e 265 315
e 266 37
e 266 76
e 266 115
e 266 145
e 266 208
e 266 265
e 266 315
e 267 16
e 267 96
e 267 108
e 267 251
e 267 253
e 267 304
e 267 306
e 268 14
e 268 24
e 268 40
e 268 165
e 268 175
e 268 214
e 268 261
e 269 10
e 269 14
e 269 92
e 269 124
e 269 141
e 269 252
e 269 296
e 270 45
e 270 108
e 270 135
e 270 143
e 270 204
e 270 288
e 270 300
e 271 7
e 271 17
e 271 21
e 271 112
e 271 182
e 271 261
e 271 284
e 272 2
e 272 39
e 272 65
e 272 71
e 272 152
e 272 160
e 272 312
e 273 20
e 273 25
e 273 61
e 273 176
e 273 183
e 273 256
e 273 316
e 274 42
e 274 87
e 274 99
e 274 100
e 274 197
e 274 301
e 274 312
e 275 36
e 275 84
e 275 87
e 275 105
e 275 118
e 275 239
e 275 296
e 276 35
e 276 88
e 276 131
e 276 138
e 276 147
e 276 255
e 276 292
e 277 26
e 277 28
e 277 92
e 277 198
e 277 199
e 277 199
e 277 289
e 278 30
e 278 83
e 278 95
e 278 178
e 278 246
e 278 252
e 278 306
e 279 1
e 279 169
e 279 195
e 279 237
e 279 259
e 279 301
e 279 301
e 280 13
e 280 37
e 280 63
e 280 107
e 280 138
e 280 145
e 280 148
e 281 172
e 281 185
e 281 194
e 281 203
e 281 259
e 281 260
e 281 289
e 282 40
e 282 43
e 282 67
e 282 158
e 282 241
e 282 249
e 282 264
e 283 14
e 283 16
e 283 38
e 283 52
e 283 135
e 283 237
e 283 259
e 284 18
e 284 90
e 284 116
e 284 156
e 284 167
e 284 238
e 284 277
e 285 55
e 285 88
e 285 185
e 285 198
e 285 238
e 285 262
e 285 264
e 286 23
e 286 88
e 286 98
e 286 166
e 286 228
e 286 236
e 286 297
e 287 12
e 287 50
e 287 65
e 287 185
e 287 235
e 287 290
e 287 314
e 288 63
e 288 124
e 288 139
e 288 146
e 288 193
e 288 237
e 288 281
e 289 7
e 289 35
e 289 165
e 289 180
e 289 207
e 289 248
e 289 311
e 290 4
e 290 43
e 290 48
e 290 110
e 290 117
e 290 126
e 290 151
e 291 2
e 291 50
e 291 66
e 291 132
e 291 154
e 291 219
e 291 289
e 292 60
e 292 229
e 292 237
e 292 263
e 292 271
e 292 286
e 292 293
e 293 67
e 293 77
e 293 93
e 293 94
e 293 202
e 293 221
e 293 251
e 294 4
e 294 27
e 294 40
e 294 61
e 294 159
e 294 170
e 294 273
e 295 80
e 295 163
e 295 166
e 295 181
e 295 224
e 295 244
e 295 291
e 296 49
e 296 65
e 296 240
e 296 279
e 296 294
e 296 304
e 296 306
e 297 59
e 297 93
e 297 151
e 297 243
e 297 259
e 297 305
e 297 316
e 298 24
e 298 59
e 298 93
e 298 145
e 298 197
e 298 225
e 298 279
e 299 51
e 299 60
e 299 149
e 299 150
e 299 195
e 299 251
e 299 312
e 300 86
e 300 107
e 300 124
e 300 177
e 300 225
e 300 226
e 300 269
e 301 82
e 301 94
e 301 125
e 301 210
e 301 225
e 301 227
e 301 248
e 302 25
e 302 30
e 302 66
e 302 122
e 302 159
e 302 232
e 302 291
e 303 47
e 303 91
e 303 155
e 303 217
e 303 223
e 303 237
e 303 314
e 304 21
e 304 36
e 304 48
e 304 68
e 304 118
e 304 204
e 304 289
e 305 26
e 305 37
e 305 127
e 305 224
e 305 258
e 305 261
e 305 310
e 306 36
e 306 80
e 306 111
e 306 117
e 306 146
e 306 174
e 306 176
e 307 21
e 307 36
e 307 140
e 307 169
e 307 183
e 307 223
e 307 257
e 308 11
e 308 27
e 308 63
e 308 79
e 308 109
e 308 196
e 308 285
e 309 12
e 309 30
e 309 79
e 309 139
e 309 286
e 309 307
e 309 315
e 310 52
e 310 62
e 310 71
e 310 78
e 310 188
e 310 290
e 310 301
e 311 60
e 311 181
e 311 205
e 311 217
e 311 235
e 311 242
e 311 315
e 312 6
e 312 13
e 312 41
e 312 67
e 312 171
e 312 211
e 312 280
e 313 55
e 313 67
e 313 87
e 313 97
e 313 221
e 313 260
e 313 295
e 314 93
e 314 106
e 314 222
e 314 240
e 314 254
e 314 271
e 314 280
e 315 97
e 315 151
e 315 174
e 315 248
e 315 279
e 315 299
e 315 309
e 316 45
e 316 94
e 316 95
e 316 210
e 316 210
e 316 277
e 316 280
e 317 92
e 317 166
e 317 197
e 317 249
e 317 250
e 317 285
e 317 316
e 318 21
e 318 21
e 318 111
e 318 117
e 318 172
e 318 275
e 318 320
e 319 26
e 319 117
e 319 162
e 319 243
e 319 253
e 319 265
e 319 306
e 320 4
e 320 125
e 320 154
e 320 207
e 320 275
e 320 299
e 320 303
